c graph generated with Leemon random 3SAT generator 
c used variables: 3 clauses: 12 and has a graph number of: 0 and has nodes: 12
c 1 -1 -1
c 1 -3 3
c 3 2 -1
c 1 -1 -2
c 1 2 -2
c 1 -1 -3
c 3 -1 2
c 2 -3 -1
c 1 1 -1
c 1 -1 -3
c 3 -3 -2
c 1 -3 -1
p edge 36 0
e 2 1
e 3 1
e 3 2
e 4 1
e 4 2
e 4 3
e 5 1
e 5 2
e 5 3
e 5 4
e 6 2
e 6 3
e 7 1
e 7 2
e 7 3
e 7 4
e 7 5
e 8 2
e 8 3
e 9 1
e 9 2
e 9 4
e 9 5
e 9 6
e 9 7
e 9 8
e 10 1
e 10 2
e 10 3
e 10 4
e 10 5
e 10 7
e 10 9
e 11 2
e 11 3
e 11 6
e 11 8
e 11 9
e 12 1
e 12 2
e 12 3
e 12 4
e 12 7
e 12 9
e 12 10
e 13 2
e 13 3
e 13 6
e 13 8
e 13 9
e 13 11
e 14 1
e 14 2
e 14 4
e 14 5
e 14 6
e 14 7
e 14 8
e 14 9
e 14 10
e 14 11
e 14 12
e 14 13
e 15 1
e 15 2
e 15 4
e 15 5
e 15 6
e 15 7
e 15 8
e 15 9
e 15 10
e 15 11
e 15 12
e 15 13
e 15 14
e 16 2
e 16 3
e 16 6
e 16 8
e 16 9
e 16 11
e 16 13
e 16 14
e 16 15
e 17 2
e 17 3
e 17 6
e 17 8
e 17 9
e 17 11
e 17 13
e 17 14
e 17 15
e 17 16
e 18 2
e 18 3
e 18 6
e 18 8
e 18 9
e 18 11
e 18 13
e 18 14
e 18 15
e 18 16
e 18 17
e 19 1
e 19 2
e 19 3
e 19 4
e 19 5
e 19 7
e 19 9
e 19 10
e 19 12
e 19 14
e 19 15
e 20 1
e 20 2
e 20 3
e 20 4
e 20 5
e 20 6
e 20 7
e 20 8
e 20 9
e 20 10
e 20 11
e 20 12
e 20 13
e 20 14
e 20 16
e 20 17
e 20 18
e 20 19
e 21 1
e 21 2
e 21 3
e 21 4
e 21 5
e 21 6
e 21 8
e 21 10
e 21 11
e 21 12
e 21 13
e 21 16
e 21 17
e 21 19
e 21 20
e 22 1
e 22 2
e 22 3
e 22 4
e 22 5
e 22 6
e 22 7
e 22 8
e 22 9
e 22 10
e 22 11
e 22 12
e 22 13
e 22 14
e 22 15
e 22 17
e 22 18
e 22 19
e 22 20
e 22 21
e 23 1
e 23 3
e 23 5
e 23 6
e 23 7
e 23 8
e 23 9
e 23 10
e 23 11
e 23 12
e 23 14
e 23 15
e 23 16
e 23 17
e 23 18
e 23 19
e 23 21
e 24 1
e 24 3
e 24 4
e 24 5
e 24 6
e 24 7
e 24 8
e 24 9
e 24 12
e 24 13
e 24 14
e 24 15
e 24 16
e 24 17
e 24 18
e 24 19
e 24 21
e 24 23
e 25 1
e 25 2
e 25 3
e 25 4
e 25 5
e 25 7
e 25 9
e 25 10
e 25 12
e 25 15
e 25 19
e 25 20
e 25 21
e 25 22
e 25 23
e 25 24
e 26 1
e 26 2
e 26 3
e 26 4
e 26 5
e 26 7
e 26 9
e 26 10
e 26 12
e 26 14
e 26 19
e 26 21
e 26 22
e 26 23
e 26 24
e 26 25
e 27 2
e 27 3
e 27 6
e 27 8
e 27 9
e 27 11
e 27 13
e 27 14
e 27 15
e 27 16
e 27 17
e 27 18
e 27 20
e 27 21
e 27 22
e 27 23
e 27 24
e 28 1
e 28 3
e 28 4
e 28 5
e 28 6
e 28 7
e 28 8
e 28 9
e 28 10
e 28 11
e 28 12
e 28 13
e 28 14
e 28 15
e 28 16
e 28 18
e 28 21
e 28 23
e 28 24
e 28 25
e 28 26
e 28 27
e 29 1
e 29 3
e 29 4
e 29 5
e 29 7
e 29 9
e 29 10
e 29 12
e 29 14
e 29 15
e 29 19
e 29 20
e 29 21
e 29 22
e 29 23
e 29 24
e 29 25
e 29 26
e 29 28
e 30 1
e 30 2
e 30 4
e 30 5
e 30 6
e 30 7
e 30 8
e 30 9
e 30 10
e 30 11
e 30 12
e 30 13
e 30 14
e 30 15
e 30 16
e 30 17
e 30 18
e 30 19
e 30 20
e 30 21
e 30 22
e 30 25
e 30 26
e 30 27
e 30 29
e 31 2
e 31 3
e 31 6
e 31 8
e 31 11
e 31 13
e 31 14
e 31 15
e 31 16
e 31 17
e 31 18
e 31 20
e 31 21
e 31 22
e 31 23
e 31 24
e 31 27
e 31 28
e 31 30
e 32 1
e 32 3
e 32 4
e 32 5
e 32 6
e 32 7
e 32 8
e 32 9
e 32 10
e 32 11
e 32 12
e 32 13
e 32 14
e 32 15
e 32 17
e 32 18
e 32 19
e 32 21
e 32 23
e 32 24
e 32 25
e 32 26
e 32 27
e 32 28
e 32 29
e 32 31
e 33 1
e 33 4
e 33 5
e 33 6
e 33 7
e 33 8
e 33 9
e 33 10
e 33 11
e 33 12
e 33 13
e 33 14
e 33 15
e 33 16
e 33 17
e 33 18
e 33 19
e 33 20
e 33 22
e 33 23
e 33 24
e 33 25
e 33 26
e 33 27
e 33 28
e 33 30
e 33 31
e 33 32
e 34 1
e 34 2
e 34 3
e 34 4
e 34 5
e 34 6
e 34 7
e 34 8
e 34 10
e 34 11
e 34 12
e 34 13
e 34 16
e 34 17
e 34 18
e 34 19
e 34 20
e 34 21
e 34 22
e 34 23
e 34 24
e 34 25
e 34 26
e 34 27
e 34 28
e 34 29
e 34 30
e 34 32
e 35 1
e 35 4
e 35 5
e 35 6
e 35 7
e 35 8
e 35 9
e 35 10
e 35 11
e 35 12
e 35 13
e 35 14
e 35 15
e 35 16
e 35 17
e 35 18
e 35 19
e 35 21
e 35 23
e 35 24
e 35 25
e 35 26
e 35 27
e 35 28
e 35 29
e 35 31
e 35 32
e 35 33
e 35 34
e 36 1
e 36 3
e 36 4
e 36 5
e 36 6
e 36 7
e 36 8
e 36 9
e 36 10
e 36 11
e 36 12
e 36 13
e 36 15
e 36 16
e 36 17
e 36 18
e 36 19
e 36 21
e 36 23
e 36 24
e 36 26
e 36 27
e 36 28
e 36 29
e 36 31
e 36 32
e 36 33
e 36 34
e 36 35
